NAME : traveling-santa-2018-prime-paths.30660.tour
COMMENT : Length = 30660
COMMENT : Found by LKH [Keld Helsgaun] Sun Jun 12 20:00:24 2022
TYPE : TOUR
DIMENSION : 100
TOUR_SECTION
1
2
60
82
74
98
63
14
58
47
76
91
95
8
94
92
11
46
88
66
75
37
96
80
72
73
44
38
67
29
30
85
7
90
9
20
65
49
41
34
56
5
22
3
64
89
86
55
54
57
77
23
24
32
16
79
10
50
68
97
59
69
51
35
40
15
81
31
19
99
48
26
12
39
4
18
71
17
25
78
84
21
70
42
27
53
6
87
100
13
36
33
52
62
83
28
61
45
43
93
-1
EOF
